(set-option :produce-models true); benchmark generated from python API
(set-info :status unknown)
(declare-fun l_1_0_9 () Real)
(declare-fun l_1_0_8 () Real)
(declare-fun l_1_0_7 () Real)
(declare-fun l_1_0_6 () Real)
(declare-fun l_1_0_5 () Real)
(declare-fun l_1_0_4 () Real)
(declare-fun l_1_0_3 () Real)
(declare-fun l_1_0_2 () Real)
(declare-fun l_1_0_1 () Real)
(declare-fun _a_0_ () Real)
(declare-fun l_1_0_14 () Real)
(declare-fun l_1_0_13 () Real)
(declare-fun l_1_0_12 () Real)
(declare-fun _a_1_ () Real)
(declare-fun l_1_0_11 () Real)
(declare-fun l_1_0_10 () Real)
(declare-fun _a_2_ () Real)
(declare-fun _a_3_ () Real)
(declare-fun _a_4_ () Real)
(declare-fun _a_5_ () Real)
(declare-fun l_1_1_6 () Real)
(declare-fun l_1_1_3 () Real)
(declare-fun l_1_1_2 () Real)
(declare-fun l_1_1_15 () Real)
(declare-fun l_1_1_14 () Real)
(declare-fun l_1_1_13 () Real)
(declare-fun l_1_1_12 () Real)
(declare-fun l_1_1_11 () Real)
(declare-fun l_1_1_10 () Real)
(declare-fun l_1_1_1 () Real)
(declare-fun l_1_1_9 () Real)
(declare-fun l_1_1_8 () Real)
(declare-fun l_1_1_7 () Real)
(declare-fun l_1_1_5 () Real)
(declare-fun l_1_1_4 () Real)
(declare-fun l_1_1_17 () Real)
(declare-fun l_1_1_16 () Real)
(declare-fun l_1_1_20 () Real)
(declare-fun l_1_1_19 () Real)
(declare-fun l_1_1_18 () Real)
(declare-fun l_1_2_9 () Real)
(declare-fun l_1_2_8 () Real)
(declare-fun l_1_2_7 () Real)
(declare-fun l_1_2_6 () Real)
(declare-fun l_1_2_5 () Real)
(declare-fun l_1_2_3 () Real)
(declare-fun l_1_2_15 () Real)
(declare-fun l_1_2_14 () Real)
(declare-fun l_1_2_12 () Real)
(declare-fun l_1_2_10 () Real)
(declare-fun l_1_2_4 () Real)
(declare-fun l_1_2_2 () Real)
(declare-fun l_1_2_13 () Real)
(declare-fun l_1_2_11 () Real)
(declare-fun l_1_2_1 () Real)
(declare-fun l_1_2_20 () Real)
(declare-fun l_1_2_19 () Real)
(declare-fun l_1_2_18 () Real)
(declare-fun l_1_2_17 () Real)
(declare-fun l_1_2_16 () Real)
(assert
 (let ((?x46 (* l_1_0_9 l_1_0_9)))
 (let ((?x53 (- (- (- _a_0_ (* 1.0 l_1_0_1)) l_1_0_2) (* 1.0 l_1_0_3))))
 (let ((?x47 (- (- (- (- ?x53 (* 1.0 l_1_0_4)) l_1_0_5) (* 1.0 l_1_0_6)) l_1_0_7)))
 (= (- (- ?x47 l_1_0_8) ?x46) 0.0)))))
(assert
 (let ((?x1415 (* 2.0 l_1_0_4)))
 (let ((?x1414 (* l_1_0_14 l_1_0_14)))
 (let ((?x1412 (* l_1_0_13 l_1_0_13)))
 (let ((?x1213 (- (- (- (- (- _a_1_ l_1_0_1) (* l_1_0_12 l_1_0_12)) ?x1412) ?x1414) l_1_0_3)))
 (= (- (- ?x1213 ?x1415) l_1_0_6) 0.0))))))
(assert
 (let ((?x1415 (* 2.0 l_1_0_4)))
 (let ((?x1324 (* l_1_0_11 l_1_0_11)))
 (let ((?x1326 (+ (- (- (+ _a_2_ l_1_0_1) (* l_1_0_10 l_1_0_10)) ?x1324) l_1_0_3)))
 (= (+ (+ ?x1326 ?x1415) l_1_0_6) 0.0)))))
(assert
 (let ((?x1247 (- (- _a_3_ (* (* 2.0 l_1_0_10) l_1_0_12)) (* (* 2.0 l_1_0_11) l_1_0_13))))
 (= ?x1247 0.0)))
(assert
 (= (- _a_4_ (* (* 2.0 l_1_0_12) l_1_0_9)) 0.0))
(assert
 (= (- _a_5_ (* (* 2.0 l_1_0_10) l_1_0_9)) 0.0))
(assert
 (= (- l_1_0_4) 0.0))
(assert
 (let ((?x1415 (* 2.0 l_1_0_4)))
 (= ?x1415 0.0)))
(assert
 (= (- l_1_0_4) 0.0))
(assert
 (>= l_1_0_1 0.0))
(assert
 (>= l_1_0_2 0.0))
(assert
 (>= l_1_0_3 0.0))
(assert
 (>= l_1_0_4 0.0))
(assert
 (>= l_1_0_5 0.0))
(assert
 (>= l_1_0_6 0.0))
(assert
 (>= l_1_0_7 0.0))
(assert
 (>= l_1_0_8 0.0))
(assert
 (>= l_1_0_9 0.0))
(assert
 (>= l_1_0_11 0.0))
(assert
 (>= l_1_0_14 0.0))
(assert
 (let ((?x1018 (* l_1_1_15 l_1_1_15)))
 (let ((?x1120 (* _a_0_ l_1_1_8)))
 (let ((?x1119 (+ (- (* (- _a_0_) l_1_1_4) (* _a_0_ l_1_1_5)) (* (* 1.0 _a_0_) l_1_1_7))))
 (let ((?x1126 (- (- (+ (- ?x1119 ?x1120) (* (* 1.0 _a_0_) l_1_1_9)) l_1_1_1) (* 1.0 l_1_1_10))))
 (let ((?x1016 (+ (- (+ ?x1126 (* 1.0 l_1_1_11)) l_1_1_12) (* 1.0 l_1_1_13))))
 (let ((?x941 (- (- (+ (- (- ?x1016 l_1_1_14) ?x1018) (* 1.0 l_1_1_2)) l_1_1_3) (* (* l_1_1_6 _a_0_) _a_0_))))
 (= (+ ?x941 (/ 15.0 4.0)) 0.0))))))))
(assert
 (let ((?x31 (* l_1_1_17 l_1_1_17)))
 (let ((?x34 (* l_1_1_16 l_1_1_16)))
 (let ((?x37 (* 2.0 l_1_1_10)))
 (let ((?x40 (* _a_2_ l_1_1_8)))
 (let ((?x901 (+ (- (- (* (- _a_2_) l_1_1_4) (* _a_2_ l_1_1_5)) ?x40) ?x37)))
 (let ((?x23 (- (- (- (- (- (- ?x901 l_1_1_11) l_1_1_13) ?x34) ?x31) l_1_1_2) (* l_1_1_6 (+ (* (* 2.0 _a_0_) _a_2_) (* _a_5_ _a_5_))))))
 (let ((?x491 (- (- ?x23 (* l_1_1_7 (- _a_0_ (* 1.0 _a_2_)))) (* l_1_1_9 (- _a_0_ (* 1.0 _a_2_))))))
 (= (+ ?x491 1.0) 0.0)))))))))
(assert
 (let ((?x574 (* l_1_1_20 l_1_1_20)))
 (let ((?x571 (* l_1_1_19 l_1_1_19)))
 (let ((?x569 (* l_1_1_18 l_1_1_18)))
 (let ((?x37 (* 2.0 l_1_1_10)))
 (let ((?x627 (* _a_1_ l_1_1_8)))
 (let ((?x564 (+ (- (- (* (- _a_1_) l_1_1_4) (* _a_1_ l_1_1_5)) ?x627) ?x37)))
 (let ((?x494 (- (- (- (- (- (- ?x564 l_1_1_11) l_1_1_13) ?x569) ?x571) l_1_1_2) ?x574)))
 (let ((?x498 (- ?x494 (* l_1_1_6 (+ (* (* 2.0 _a_0_) _a_1_) (* _a_4_ _a_4_))))))
 (let ((?x506 (- (- ?x498 (* l_1_1_7 (- _a_0_ (* 1.0 _a_1_)))) (* l_1_1_9 (- _a_0_ (* 1.0 _a_1_))))))
 (= (+ ?x506 1.0) 0.0)))))))))))
(assert
 (let ((?x16 (* _a_4_ l_1_1_8)))
 (let ((?x286 (* _a_4_ l_1_1_5)))
 (let ((?x297 (* _a_4_ l_1_1_4)))
 (let ((?x284 (+ (- (- (* (* (* (- 2.0) _a_0_) _a_4_) l_1_1_6) ?x297) ?x286) (* (* 1.0 _a_4_) l_1_1_7))))
 (let ((?x14 (- (+ (- ?x284 ?x16) (* (* 1.0 _a_4_) l_1_1_9)) (* (* 2.0 l_1_1_15) l_1_1_18))))
 (= (- ?x14 4.0) 0.0)))))))
(assert
 (let ((?x204 (+ (* (* 2.0 _a_0_) _a_3_) (* (* 2.0 _a_4_) _a_5_))))
 (let ((?x240 (* _a_3_ l_1_1_8)))
 (let ((?x201 (+ (- (* (- _a_3_) l_1_1_4) (* _a_3_ l_1_1_5)) (* (* 1.0 _a_3_) l_1_1_7))))
 (let ((?x222 (- (+ (- ?x201 ?x240) (* (* 1.0 _a_3_) l_1_1_9)) (* (* 2.0 l_1_1_16) l_1_1_18))))
 (= (- (- ?x222 (* (* 2.0 l_1_1_17) l_1_1_19)) (* l_1_1_6 ?x204)) 0.0))))))
(assert
 (let ((?x860 (* _a_5_ l_1_1_8)))
 (let ((?x854 (* _a_5_ l_1_1_5)))
 (let ((?x356 (* _a_5_ l_1_1_4)))
 (let ((?x862 (+ (- (- (* (* (* (- 2.0) _a_0_) _a_5_) l_1_1_6) ?x356) ?x854) (* (* 1.0 _a_5_) l_1_1_7))))
 (let ((?x515 (- (+ (- ?x862 ?x860) (* (* 1.0 _a_5_) l_1_1_9)) (* (* 2.0 l_1_1_15) l_1_1_16))))
 (= ?x515 0.0)))))))
(assert
 (let ((?x1251 (- (- (- (* (- _a_1_) l_1_1_7) (* _a_1_ l_1_1_9)) l_1_1_10) (* (* l_1_1_6 _a_1_) _a_1_))))
 (= ?x1251 0.0)))
(assert
 (let ((?x663 (* (- 2.0) l_1_1_10)))
 (let ((?x1285 (- ?x663 (* l_1_1_6 (+ (* (* 2.0 _a_1_) _a_2_) (* _a_3_ _a_3_))))))
 (let ((?x978 (- (- ?x1285 (* l_1_1_7 (+ _a_1_ _a_2_))) (* l_1_1_9 (+ _a_1_ _a_2_)))))
 (= ?x978 0.0)))))
(assert
 (let ((?x136 (* _a_3_ l_1_1_9)))
 (let ((?x173 (* _a_3_ l_1_1_7)))
 (= (- (- (* (* (* (- 2.0) _a_1_) _a_3_) l_1_1_6) ?x173) ?x136) 0.0))))
(assert
 (let ((?x267 (* _a_4_ l_1_1_9)))
 (let ((?x264 (* _a_4_ l_1_1_7)))
 (= (- (- (* (* (* (- 2.0) _a_1_) _a_4_) l_1_1_6) ?x264) ?x267) 0.0))))
(assert
 (let ((?x1265 (+ (* (* 2.0 _a_1_) _a_5_) (* (* 2.0 _a_3_) _a_4_))))
 (let ((?x1267 (- (- (* (- _a_5_) l_1_1_7) (* _a_5_ l_1_1_9)) (* l_1_1_6 ?x1265))))
 (= ?x1267 0.0))))
(assert
 (let ((?x1270 (- (- (- (* (- _a_2_) l_1_1_7) (* _a_2_ l_1_1_9)) l_1_1_10) (* (* l_1_1_6 _a_2_) _a_2_))))
 (= ?x1270 0.0)))
(assert
 (let ((?x136 (* _a_3_ l_1_1_9)))
 (let ((?x173 (* _a_3_ l_1_1_7)))
 (= (- (- (* (* (* (- 2.0) _a_2_) _a_3_) l_1_1_6) ?x173) ?x136) 0.0))))
(assert
 (let ((?x188 (+ (* (* 2.0 _a_2_) _a_4_) (* (* 2.0 _a_3_) _a_5_))))
 (let ((?x190 (- (- (* (- _a_4_) l_1_1_7) (* _a_4_ l_1_1_9)) (* l_1_1_6 ?x188))))
 (= ?x190 0.0))))
(assert
 (let ((?x1072 (* _a_5_ l_1_1_9)))
 (let ((?x885 (* _a_5_ l_1_1_7)))
 (= (- (- (* (* (* (- 2.0) _a_2_) _a_5_) l_1_1_6) ?x885) ?x1072) 0.0))))
(assert
 (>= l_1_1_1 0.0))
(assert
 (>= l_1_1_2 0.0))
(assert
 (>= l_1_1_3 0.0))
(assert
 (>= l_1_1_4 0.0))
(assert
 (>= l_1_1_5 0.0))
(assert
 (>= l_1_1_6 0.0))
(assert
 (>= l_1_1_7 0.0))
(assert
 (>= l_1_1_8 0.0))
(assert
 (>= l_1_1_9 0.0))
(assert
 (>= l_1_1_10 0.0))
(assert
 (>= l_1_1_11 0.0))
(assert
 (>= l_1_1_12 0.0))
(assert
 (>= l_1_1_13 0.0))
(assert
 (>= l_1_1_14 0.0))
(assert
 (>= l_1_1_15 0.0))
(assert
 (>= l_1_1_17 0.0))
(assert
 (>= l_1_1_20 0.0))
(assert
 (let ((?x727 (* l_1_2_15 l_1_2_15)))
 (let ((?x521 (* _a_0_ l_1_2_4)))
 (let ((?x519 (* _a_0_ l_1_2_2)))
 (let ((?x524 (- (- (* (* (- 1.0) _a_0_) l_1_2_1) (* _a_0_ l_1_2_11)) (* (* 1.0 _a_0_) l_1_2_13))))
 (let ((?x733 (- (- (+ (- (- ?x524 ?x519) ?x521) _a_0_) (* 1.0 l_1_2_10)) (* 1.0 l_1_2_12))))
 (let ((?x999 (- (- (- (- (- ?x733 l_1_2_14) ?x727) (* 1.0 l_1_2_3)) l_1_2_5) l_1_2_6)))
 (let ((?x853 (- (- (- ?x999 (* (* l_1_2_7 _a_0_) _a_0_)) l_1_2_8) (* 1.0 l_1_2_9))))
 (= ?x853 0.0)))))))))
(assert
 (let ((?x1334 (* 2.0 l_1_2_3)))
 (let ((?x1347 (* l_1_2_20 l_1_2_20)))
 (let ((?x1345 (* l_1_2_19 l_1_2_19)))
 (let ((?x1332 (* l_1_2_18 l_1_2_18)))
 (let ((?x679 (* (/ 81.0 10000.0) _a_3_)))
 (let ((?x1383 (* (/ 81.0 1000000.0) _a_2_)))
 (let ((?x1380 (* (/ 81.0 100.0) _a_1_)))
 (let ((?x1385 (* _a_1_ l_1_2_4)))
 (let ((?x1381 (+ (- (- (* (- _a_1_) l_1_2_11) (* _a_1_ l_1_2_2)) ?x1385) ?x1380)))
 (let ((?x836 (- (- (+ ?x1381 ?x1383) ?x679) (* l_1_2_1 (+ (- _a_0_) (* 1.0 _a_1_))))))
 (let ((?x1331 (- (+ (+ ?x836 l_1_2_10) l_1_2_12) (* l_1_2_13 (+ (- _a_0_) (* 1.0 _a_1_))))))
 (let ((?x152 (- (+ (- (- (- ?x1331 ?x1332) ?x1345) ?x1347) ?x1334) (* l_1_2_7 (+ (* (* 2.0 _a_0_) _a_1_) (* _a_4_ _a_4_))))))
 (= (+ ?x152 l_1_2_9) 0.0))))))))))))))
(assert
 (let ((?x204 (+ (* (* 2.0 _a_0_) _a_3_) (* (* 2.0 _a_4_) _a_5_))))
 (let ((?x345 (* (/ 809919.0 1000000.0) _a_3_)))
 (let ((?x1471 (* _a_3_ l_1_2_4)))
 (let ((?x1463 (* _a_3_ l_1_2_2)))
 (let ((?x1444 (* _a_3_ l_1_2_11)))
 (let ((?x1443 (- (- (* (/ 81.0 5000.0) _a_1_) (* (/ 81.0 5000.0) _a_2_)) (* (* 1.0 _a_3_) l_1_2_1))))
 (let ((?x1472 (- (- (- (- ?x1443 ?x1444) (* (* 1.0 _a_3_) l_1_2_13)) ?x1463) ?x1471)))
 (let ((?x449 (- (- (+ ?x1472 ?x345) (* (* 2.0 l_1_2_16) l_1_2_18)) (* (* 2.0 l_1_2_17) l_1_2_19))))
 (= (- ?x449 (* l_1_2_7 ?x204)) 0.0))))))))))
(assert
 (let ((?x1334 (* 2.0 l_1_2_3)))
 (let ((?x1500 (* l_1_2_17 l_1_2_17)))
 (let ((?x585 (* l_1_2_16 l_1_2_16)))
 (let ((?x679 (* (/ 81.0 10000.0) _a_3_)))
 (let ((?x592 (* (/ 81.0 100.0) _a_2_)))
 (let ((?x582 (* _a_2_ l_1_2_4)))
 (let ((?x234 (* _a_2_ l_1_2_2)))
 (let ((?x593 (+ (- (- (- (* (/ 81.0 1000000.0) _a_1_) (* _a_2_ l_1_2_11)) ?x234) ?x582) ?x592)))
 (let ((?x1406 (+ (- (+ ?x593 ?x679) (* l_1_2_1 (+ (- _a_0_) (* 1.0 _a_2_)))) l_1_2_10)))
 (let ((?x584 (- (+ ?x1406 l_1_2_12) (* l_1_2_13 (+ (- _a_0_) (* 1.0 _a_2_))))))
 (let ((?x1504 (- (+ (- (- ?x584 ?x585) ?x1500) ?x1334) (* l_1_2_7 (+ (* (* 2.0 _a_0_) _a_2_) (* _a_5_ _a_5_))))))
 (= (+ ?x1504 l_1_2_9) 0.0)))))))))))))
(assert
 (let ((?x912 (* (/ 9.0 1000.0) _a_5_)))
 (let ((?x1046 (* (/ 9.0 10.0) _a_4_)))
 (let ((?x919 (* _a_4_ l_1_2_4)))
 (let ((?x858 (* _a_4_ l_1_2_2)))
 (let ((?x604 (* _a_4_ l_1_2_11)))
 (let ((?x603 (- (* (* (* (- 2.0) _a_0_) _a_4_) l_1_2_7) (* (* 1.0 _a_4_) l_1_2_1))))
 (let ((?x921 (- (- (- (- ?x603 ?x604) (* (* 1.0 _a_4_) l_1_2_13)) ?x858) ?x919)))
 (= (- (- (+ ?x921 ?x1046) ?x912) (* (* 2.0 l_1_2_15) l_1_2_18)) 0.0)))))))))
(assert
 (let ((?x973 (* (/ 9.0 10.0) _a_5_)))
 (let ((?x216 (* _a_5_ l_1_2_4)))
 (let ((?x1131 (* _a_5_ l_1_2_2)))
 (let ((?x1081 (* _a_5_ l_1_2_11)))
 (let ((?x994 (- (+ (* (* (* (- 2.0) _a_0_) _a_5_) l_1_2_7) (* (/ 9.0 1000.0) _a_4_)) (* (* 1.0 _a_5_) l_1_2_1))))
 (let ((?x972 (- (- (- (- ?x994 ?x1081) (* (* 1.0 _a_5_) l_1_2_13)) ?x1131) ?x216)))
 (= (- (+ ?x972 ?x973) (* (* 2.0 l_1_2_15) l_1_2_16)) 0.0))))))))
(assert
 (let ((?x1334 (* 2.0 l_1_2_3)))
 (let ((?x1191 (- (* (- l_1_2_1) (- (- _a_1_) _a_2_)) (* l_1_2_13 (- (- _a_1_) _a_2_)))))
 (let ((?x1147 (- (- ?x1191 ?x1334) (* l_1_2_7 (+ (* (* 2.0 _a_1_) _a_2_) (* _a_3_ _a_3_))))))
 (= ?x1147 0.0)))))
(assert
 (let ((?x1351 (- (- (+ (* _a_2_ l_1_2_1) (* _a_2_ l_1_2_13)) l_1_2_3) (* (* l_1_2_7 _a_2_) _a_2_))))
 (= ?x1351 0.0)))
(assert
 (let ((?x1377 (* _a_3_ l_1_2_13)))
 (let ((?x1490 (* _a_3_ l_1_2_1)))
 (= (+ (+ (* (* (* (- 2.0) _a_2_) _a_3_) l_1_2_7) ?x1490) ?x1377) 0.0))))
(assert
 (let ((?x188 (+ (* (* 2.0 _a_2_) _a_4_) (* (* 2.0 _a_3_) _a_5_))))
 (let ((?x1481 (- (+ (* _a_4_ l_1_2_1) (* _a_4_ l_1_2_13)) (* l_1_2_7 ?x188))))
 (= ?x1481 0.0))))
(assert
 (let ((?x997 (* _a_5_ l_1_2_13)))
 (let ((?x601 (* _a_5_ l_1_2_1)))
 (= (+ (+ (* (* (* (- 2.0) _a_2_) _a_5_) l_1_2_7) ?x601) ?x997) 0.0))))
(assert
 (let ((?x621 (- (- (+ (* _a_1_ l_1_2_1) (* _a_1_ l_1_2_13)) l_1_2_3) (* (* l_1_2_7 _a_1_) _a_1_))))
 (= ?x621 0.0)))
(assert
 (let ((?x1377 (* _a_3_ l_1_2_13)))
 (let ((?x1490 (* _a_3_ l_1_2_1)))
 (= (+ (+ (* (* (* (- 2.0) _a_1_) _a_3_) l_1_2_7) ?x1490) ?x1377) 0.0))))
(assert
 (let ((?x534 (* _a_4_ l_1_2_13)))
 (let ((?x804 (* _a_4_ l_1_2_1)))
 (= (+ (+ (* (* (* (- 2.0) _a_1_) _a_4_) l_1_2_7) ?x804) ?x534) 0.0))))
(assert
 (let ((?x1265 (+ (* (* 2.0 _a_1_) _a_5_) (* (* 2.0 _a_3_) _a_4_))))
 (let ((?x997 (* _a_5_ l_1_2_13)))
 (let ((?x601 (* _a_5_ l_1_2_1)))
 (let ((?x218 (+ ?x601 ?x997)))
 (= (- ?x218 (* l_1_2_7 ?x1265)) 0.0))))))
(assert
 (>= l_1_2_1 0.0))
(assert
 (>= l_1_2_2 0.0))
(assert
 (>= l_1_2_3 0.0))
(assert
 (>= l_1_2_4 0.0))
(assert
 (>= l_1_2_5 0.0))
(assert
 (>= l_1_2_6 0.0))
(assert
 (>= l_1_2_7 0.0))
(assert
 (>= l_1_2_8 0.0))
(assert
 (>= l_1_2_9 0.0))
(assert
 (>= l_1_2_10 0.0))
(assert
 (>= l_1_2_11 0.0))
(assert
 (>= l_1_2_12 0.0))
(assert
 (>= l_1_2_13 0.0))
(assert
 (>= l_1_2_14 0.0))
(assert
 (>= l_1_2_15 0.0))
(assert
 (>= l_1_2_17 0.0))
(assert
 (>= l_1_2_20 0.0))
(check-sat)
(get-model)